NAME : LPS-n17-m102
COMMENT : (Lartu-Peter-Santi Plot, instance 5702 out of 39200. 17 customers.)
TYPE : CVRP
DIMENSION : 17
EDGE_WEIGHT_TYPE : EUC_2D
CAPACITY : 140
NODE_COORD_SECTION
 1 54 68
 2 23 33
 3 42 51
 4 57 51
 5 49 96
 6 89 96
 7 60 60
 8 49 41
 9 30 80
 10 62 82
 11 47 1
 12 49 66
 13 9 68
 14 36 12
 15 64 31
 16 49 63
 17 61 29
DEMAND_SECTION
1 0
2 21
3 79
4 68
5 48
6 19
7 18
8 35
9 58
10 111
11 80
12 46
13 29
14 129
15 87
16 113
17 52
DEPOT_SECTION
 1
 -1
EOF
